(set-logic HORN)
(declare-fun state (Int Int (Array Int Int) Int Int Bool Bool Bool Bool Int Int) Bool)
(assert (forall ((|main@%tmp8.i_0_17| Int) (|main@%i.8.i_0_1| Int) (|main@%shadow.mem.8_0_1| (Array Int Int)) (|main@%tmp2.i_0_17| Int) (|.y.6| Int) (|.loc.7| Bool) (|.loc.8| Bool) (|.loc.9| Bool) (|.loc.10| Bool) (|main@%tmp105.i_0| Int) (|main@%tmp105.i_0_0| Int) (|.loc.12| Bool) (|.loc.13| Bool) (|main@%x.0.i_1| Int) (|.x.49| Int) (|.y.11| Int) (|.x.48| (Array Int Int)) (|.loc.14| Bool) (|.loc.15| Bool) (|.x.47| Int) (|.xtv.1| Int) (|.xpv.1| Int)) (=> (and (and (and (not .loc.7) (not .loc.8)) (not .loc.9)) (not .loc.10)) (state |main@%tmp8.i_0_17| |main@%i.8.i_0_1| |main@%shadow.mem.8_0_1| |main@%tmp2.i_0_17| |.y.6| |.loc.7| |.loc.8| |.loc.9| |.loc.10| |main@%tmp105.i_0| |main@%tmp105.i_0_0|))))
(assert (forall ((|main@%tmp8.i_0_17| Int) (|main@%i.8.i_0_1| Int) (|main@%shadow.mem.8_0_1| (Array Int Int)) (|main@%tmp2.i_0_17| Int) (|.y.6| Int) (|.loc.7| Bool) (|.loc.8| Bool) (|.loc.9| Bool) (|.loc.10| Bool) (|main@%tmp105.i_0| Int) (|main@%tmp105.i_0_0| Int) (|.loc.12| Bool) (|.loc.13| Bool) (|main@%x.0.i_1| Int) (|.x.49| Int) (|.y.11| Int) (|.x.48| (Array Int Int)) (|.loc.14| Bool) (|.loc.15| Bool) (|.x.47| Int) (|.xtv.1| Int) (|.xpv.1| Int)) (=> (and (state |main@%tmp8.i_0_17| |main@%i.8.i_0_1| |main@%shadow.mem.8_0_1| |main@%tmp2.i_0_17| |.y.6| |.loc.7| |.loc.8| |.loc.9| |.loc.10| |main@%tmp105.i_0| |main@%tmp105.i_0_0|) (let ((.def_21 (not .loc.7))) (let ((.def_22 (not .loc.8))) (let ((.def_24 (not .loc.9))) (let ((.def_26 (not .loc.10))) (let ((.def_29 (not .loc.12))) (let ((.def_37 (<= main@%tmp2.i_0_17 main@%i.8.i_0_1))) (let ((.def_60 (<= main@%tmp8.i_0_17 0))) (let ((.def_61 (not .def_60))) (let ((.def_65 (or .def_60 (not (<= main@%tmp105.i_0 0))))) (let ((.def_75 (not .loc.13))) (let ((.def_78 (= .y.11 0))) (let ((.def_80 (= main@%tmp2.i_0_17 main@%x.0.i_1))) (let ((.def_84 (= main@%shadow.mem.8_0_1 .x.48))) (let ((.def_88 (not .def_37))) (let ((.def_89 (and .loc.7 .def_88))) (let ((.def_98 (= (+ main@%i.8.i_0_1 (* (- 1) .y.11)) (- 1)))) (let ((.def_103 (= (+ main@%tmp8.i_0_17 (+ main@%i.8.i_0_1 (* (- 1) main@%tmp105.i_0))) 0))) (let ((.def_108 (and .def_37 .def_84))) (let ((.def_109 (and .loc.7 .def_108))) (let ((.def_110 (and .loc.8 .def_109))) (let ((.def_135 (not .loc.14))) (let ((.def_139 (and .loc.8 .def_108))) (let ((.def_148 (not .loc.15))) (let ((.def_154 (and .loc.8 .def_89))) (let ((.def_181 (and .loc.8 .def_88))) (let ((.def_305 (= main@%tmp8.i_0_17 .x.47))) (or (or (and (or (or (or (or (or (or (or (or (or (or (or (or (and (or (or (and (or (and (or (and (and .def_29 .loc.13) (or (and .def_22 (and .loc.7 (and (= main@%x.0.i_1 0) (and (= main@%tmp2.i_0_17 .x.49) .def_37)))) (and (= .y.6 .x.49) (and (not (<= .y.6 main@%tmp2.i_0_17)) (and (= (+ main@%tmp8.i_0_17 (+ main@%tmp2.i_0_17 (* (- 1) main@%tmp105.i_0))) 0) (and (and (and (= (+ main@%tmp2.i_0_17 (* (- 1) main@%x.0.i_1)) (- 1)) (and (and .loc.8 .def_21) (= (select main@%shadow.mem.8_0_1 main@%tmp105.i_0) 50))) .def_61) .def_65)))))) (and (and (and (and .def_21 (and .loc.12 (and .def_22 .def_37))) .def_75) .def_78) .def_80)) .def_84) (and (and (= .x.48 (store main@%shadow.mem.8_0_1 main@%tmp105.i_0 50)) (and (and .def_80 (and .def_75 (and .def_65 (and .def_61 (and .loc.12 (and .def_22 .def_89)))))) .def_98)) .def_103)) (and .loc.10 .def_24)) (and .def_26 (and .def_80 (and .def_78 (and .def_75 (and .def_29 (and .loc.9 .def_110))))))) (and (= .x.48 (store main@%shadow.mem.8_0_1 main@%tmp105.i_0 49)) (and .def_103 (and .def_98 (and .def_80 (and .def_75 (and .def_65 (and .def_61 (and .def_21 (and .def_29 (and .def_24 (and .def_22 (and .loc.10 .def_88))))))))))))) (and .def_135 .loc.15)) (and (and .def_26 (and .def_80 (and .def_78 (and .def_21 (and .loc.14 (and .loc.13 (and .loc.12 (and .loc.9 .def_139)))))))) .def_148)) (and (= .x.48 (store main@%shadow.mem.8_0_1 main@%tmp105.i_0 48)) (and .def_148 (and .def_26 (and .def_103 (and .def_98 (and .def_80 (and .def_65 (and .def_61 (and .loc.14 (and .loc.13 (and .loc.12 (and .loc.9 .def_154))))))))))))) (and .def_148 (and .def_26 (and .def_80 (and .def_78 (and .def_29 (and .loc.14 (and .loc.13 (and .def_22 (and .loc.9 .def_109)))))))))) (and (= .x.48 (store main@%shadow.mem.8_0_1 main@%tmp105.i_0 47)) (and .def_148 (and .def_26 (and .def_103 (and .def_98 (and .def_80 (and .def_65 (and .def_61 (and .def_21 (and .def_29 (and .loc.14 (and .loc.13 (and .loc.9 .def_181)))))))))))))) (and .def_148 (and .def_26 (and .def_80 (and .def_78 (and .def_75 (and .def_21 (and .loc.14 (and .loc.12 (and .def_22 (and .loc.9 .def_108))))))))))) (and (= .x.48 (store main@%shadow.mem.8_0_1 main@%tmp105.i_0 46)) (and .def_148 (and .def_26 (and .def_103 (and .def_98 (and .def_80 (and .def_75 (and .def_65 (and .def_61 (and .loc.14 (and .loc.12 (and .def_22 (and .loc.9 .def_89)))))))))))))) (and .def_148 (and .def_26 (and .def_80 (and .def_78 (and .def_75 (and .def_29 (and .loc.14 (and .def_24 .def_110))))))))) (and (= .x.48 (store main@%shadow.mem.8_0_1 main@%tmp105.i_0 45)) (and .def_148 (and .def_26 (and .def_103 (and .def_98 (and .def_80 (and .def_75 (and .def_65 (and .def_61 (and .def_21 (and .def_29 (and .loc.14 (and .def_22 (and .loc.9 .def_88))))))))))))))) (and .def_148 (and .def_26 (and .def_80 (and .def_78 (and .def_21 (and .def_135 (and .loc.13 (and .loc.12 (and .def_24 .def_139)))))))))) (and (= .x.48 (store main@%shadow.mem.8_0_1 main@%tmp105.i_0 44)) (and .def_148 (and .def_26 (and .def_103 (and .def_98 (and .def_80 (and .def_65 (and .def_61 (and .def_135 (and .loc.13 (and .loc.12 (and .def_24 .def_154))))))))))))) (and .def_148 (and .def_26 (and .def_80 (and .def_78 (and .def_135 (and .def_29 (and .loc.13 (and .def_24 (and .def_22 .def_109)))))))))) (and (= .x.48 (store main@%shadow.mem.8_0_1 main@%tmp105.i_0 43)) (and .def_148 (and .def_26 (and .def_103 (and .def_98 (and .def_80 (and .def_65 (and .def_61 (and .def_21 (and .def_135 (and .def_29 (and .loc.13 (and .def_24 .def_181)))))))))))))) .def_305) (and (not (<= main@%x.0.i_1 0)) (and (not (<= .x.47 0)) (and .def_148 (and .def_26 (and .def_78 (and .def_75 (and .def_21 (and .def_135 (and .loc.12 (and .def_22 .def_24))))))))))) (and (= .x.48 (store main@%shadow.mem.8_0_1 main@%tmp105.i_0 42)) (and .def_148 (and .def_26 (and .def_103 (and .def_98 (and .def_80 (and .def_75 (and .def_65 (and .def_61 (and .def_135 (and .loc.12 (and .def_24 (and .def_22 (and .loc.7 (and .def_88 .def_305))))))))))))))))))))))))))))))))))))))))))) (state |.x.47| |.y.11| |.x.48| |main@%x.0.i_1| |.x.49| |.loc.12| |.loc.13| |.loc.14| |.loc.15| |.xtv.1| |.xpv.1|))))
(assert (forall ((|main@%tmp8.i_0_17| Int) (|main@%i.8.i_0_1| Int) (|main@%shadow.mem.8_0_1| (Array Int Int)) (|main@%tmp2.i_0_17| Int) (|.y.6| Int) (|.loc.7| Bool) (|.loc.8| Bool) (|.loc.9| Bool) (|.loc.10| Bool) (|main@%tmp105.i_0| Int) (|main@%tmp105.i_0_0| Int) (|.loc.12| Bool) (|.loc.13| Bool) (|main@%x.0.i_1| Int) (|.x.49| Int) (|.y.11| Int) (|.x.48| (Array Int Int)) (|.loc.14| Bool) (|.loc.15| Bool) (|.x.47| Int) (|.xtv.1| Int) (|.xpv.1| Int)) (=> (state |main@%tmp8.i_0_17| |main@%i.8.i_0_1| |main@%shadow.mem.8_0_1| |main@%tmp2.i_0_17| |.y.6| |.loc.7| |.loc.8| |.loc.9| |.loc.10| |main@%tmp105.i_0| |main@%tmp105.i_0_0|) (let ((.def_60 (<= main@%tmp8.i_0_17 0))) (not (and (and .loc.10 (and (not .loc.9) (and .loc.8 (not .loc.7)))) (and (not (<= .y.6 main@%tmp2.i_0_17)) (and (and (and (not .def_60) (not (= (select main@%shadow.mem.8_0_1 main@%tmp105.i_0_0) 50))) (or .def_60 (not (<= main@%tmp105.i_0_0 0)))) (= (+ main@%tmp8.i_0_17 (+ main@%tmp2.i_0_17 (* (- 1) main@%tmp105.i_0_0))) 0)))))))))
(check-sat)
